% Auto-generated by scripts/generate_dzn.py
% problem_type   = nonogram
% instance       = nonogram_88
% source_json    = instances_json/0_low_blowup/nonogram_88.json
% blowup         = 1.0543478260869565
% representation = NFA

mode = 1;

height = 25;
width = 25;
Q = 25;
S = 2;
row_q0 = [1, 1, 1, 1, 1, 1, 1, 1, 1, 1, 1, 1, 1, 1, 1, 1, 1, 1, 1, 1, 1, 1, 1, 1, 1];
row_F = [{16}, {20}, {20}, {19}, {17}, {12}, {18}, {21}, {15}, {21}, {21}, {18}, {15}, {17}, {20}, {25}, {18}, {23}, {20}, {20}, {12}, {25}, {16}, {19}, {18}];
col_q0 = [1, 1, 1, 1, 1, 1, 1, 1, 1, 1, 1, 1, 1, 1, 1, 1, 1, 1, 1, 1, 1, 1, 1, 1, 1];
col_F = [{22}, {18}, {23}, {15}, {23}, {21}, {21}, {19}, {19}, {21}, {19}, {21}, {16}, {20}, {20}, {15}, {20}, {14}, {10}, {12}, {18}, {18}, {16}, {17}, {16}];
row_d_dfa = array3d(1..25, 1..25, 1..2, [
  % k = 1
    0, 0,
    0, 0,
    0, 0,
    0, 0,
    0, 0,
    0, 0,
    0, 0,
    0, 0,
    0, 0,
    0, 0,
    0, 0,
    0, 0,
    0, 0,
    0, 0,
    0, 0,
    0, 0,
    0, 0,
    0, 0,
    0, 0,
    0, 0,
    0, 0,
    0, 0,
    0, 0,
    0, 0,
    0, 0,

  % k = 2
    0, 0,
    0, 0,
    0, 0,
    0, 0,
    0, 0,
    0, 0,
    0, 0,
    0, 0,
    0, 0,
    0, 0,
    0, 0,
    0, 0,
    0, 0,
    0, 0,
    0, 0,
    0, 0,
    0, 0,
    0, 0,
    0, 0,
    0, 0,
    0, 0,
    0, 0,
    0, 0,
    0, 0,
    0, 0,

  % k = 3
    0, 0,
    0, 0,
    0, 0,
    0, 0,
    0, 0,
    0, 0,
    0, 0,
    0, 0,
    0, 0,
    0, 0,
    0, 0,
    0, 0,
    0, 0,
    0, 0,
    0, 0,
    0, 0,
    0, 0,
    0, 0,
    0, 0,
    0, 0,
    0, 0,
    0, 0,
    0, 0,
    0, 0,
    0, 0,

  % k = 4
    0, 0,
    0, 0,
    0, 0,
    0, 0,
    0, 0,
    0, 0,
    0, 0,
    0, 0,
    0, 0,
    0, 0,
    0, 0,
    0, 0,
    0, 0,
    0, 0,
    0, 0,
    0, 0,
    0, 0,
    0, 0,
    0, 0,
    0, 0,
    0, 0,
    0, 0,
    0, 0,
    0, 0,
    0, 0,

  % k = 5
    0, 0,
    0, 0,
    0, 0,
    0, 0,
    0, 0,
    0, 0,
    0, 0,
    0, 0,
    0, 0,
    0, 0,
    0, 0,
    0, 0,
    0, 0,
    0, 0,
    0, 0,
    0, 0,
    0, 0,
    0, 0,
    0, 0,
    0, 0,
    0, 0,
    0, 0,
    0, 0,
    0, 0,
    0, 0,

  % k = 6
    0, 0,
    0, 0,
    0, 0,
    0, 0,
    0, 0,
    0, 0,
    0, 0,
    0, 0,
    0, 0,
    0, 0,
    0, 0,
    0, 0,
    0, 0,
    0, 0,
    0, 0,
    0, 0,
    0, 0,
    0, 0,
    0, 0,
    0, 0,
    0, 0,
    0, 0,
    0, 0,
    0, 0,
    0, 0,

  % k = 7
    0, 0,
    0, 0,
    0, 0,
    0, 0,
    0, 0,
    0, 0,
    0, 0,
    0, 0,
    0, 0,
    0, 0,
    0, 0,
    0, 0,
    0, 0,
    0, 0,
    0, 0,
    0, 0,
    0, 0,
    0, 0,
    0, 0,
    0, 0,
    0, 0,
    0, 0,
    0, 0,
    0, 0,
    0, 0,

  % k = 8
    0, 0,
    0, 0,
    0, 0,
    0, 0,
    0, 0,
    0, 0,
    0, 0,
    0, 0,
    0, 0,
    0, 0,
    0, 0,
    0, 0,
    0, 0,
    0, 0,
    0, 0,
    0, 0,
    0, 0,
    0, 0,
    0, 0,
    0, 0,
    0, 0,
    0, 0,
    0, 0,
    0, 0,
    0, 0,

  % k = 9
    0, 0,
    0, 0,
    0, 0,
    0, 0,
    0, 0,
    0, 0,
    0, 0,
    0, 0,
    0, 0,
    0, 0,
    0, 0,
    0, 0,
    0, 0,
    0, 0,
    0, 0,
    0, 0,
    0, 0,
    0, 0,
    0, 0,
    0, 0,
    0, 0,
    0, 0,
    0, 0,
    0, 0,
    0, 0,

  % k = 10
    0, 0,
    0, 0,
    0, 0,
    0, 0,
    0, 0,
    0, 0,
    0, 0,
    0, 0,
    0, 0,
    0, 0,
    0, 0,
    0, 0,
    0, 0,
    0, 0,
    0, 0,
    0, 0,
    0, 0,
    0, 0,
    0, 0,
    0, 0,
    0, 0,
    0, 0,
    0, 0,
    0, 0,
    0, 0,

  % k = 11
    0, 0,
    0, 0,
    0, 0,
    0, 0,
    0, 0,
    0, 0,
    0, 0,
    0, 0,
    0, 0,
    0, 0,
    0, 0,
    0, 0,
    0, 0,
    0, 0,
    0, 0,
    0, 0,
    0, 0,
    0, 0,
    0, 0,
    0, 0,
    0, 0,
    0, 0,
    0, 0,
    0, 0,
    0, 0,

  % k = 12
    0, 0,
    0, 0,
    0, 0,
    0, 0,
    0, 0,
    0, 0,
    0, 0,
    0, 0,
    0, 0,
    0, 0,
    0, 0,
    0, 0,
    0, 0,
    0, 0,
    0, 0,
    0, 0,
    0, 0,
    0, 0,
    0, 0,
    0, 0,
    0, 0,
    0, 0,
    0, 0,
    0, 0,
    0, 0,

  % k = 13
    0, 0,
    0, 0,
    0, 0,
    0, 0,
    0, 0,
    0, 0,
    0, 0,
    0, 0,
    0, 0,
    0, 0,
    0, 0,
    0, 0,
    0, 0,
    0, 0,
    0, 0,
    0, 0,
    0, 0,
    0, 0,
    0, 0,
    0, 0,
    0, 0,
    0, 0,
    0, 0,
    0, 0,
    0, 0,

  % k = 14
    0, 0,
    0, 0,
    0, 0,
    0, 0,
    0, 0,
    0, 0,
    0, 0,
    0, 0,
    0, 0,
    0, 0,
    0, 0,
    0, 0,
    0, 0,
    0, 0,
    0, 0,
    0, 0,
    0, 0,
    0, 0,
    0, 0,
    0, 0,
    0, 0,
    0, 0,
    0, 0,
    0, 0,
    0, 0,

  % k = 15
    0, 0,
    0, 0,
    0, 0,
    0, 0,
    0, 0,
    0, 0,
    0, 0,
    0, 0,
    0, 0,
    0, 0,
    0, 0,
    0, 0,
    0, 0,
    0, 0,
    0, 0,
    0, 0,
    0, 0,
    0, 0,
    0, 0,
    0, 0,
    0, 0,
    0, 0,
    0, 0,
    0, 0,
    0, 0,

  % k = 16
    0, 0,
    0, 0,
    0, 0,
    0, 0,
    0, 0,
    0, 0,
    0, 0,
    0, 0,
    0, 0,
    0, 0,
    0, 0,
    0, 0,
    0, 0,
    0, 0,
    0, 0,
    0, 0,
    0, 0,
    0, 0,
    0, 0,
    0, 0,
    0, 0,
    0, 0,
    0, 0,
    0, 0,
    0, 0,

  % k = 17
    0, 0,
    0, 0,
    0, 0,
    0, 0,
    0, 0,
    0, 0,
    0, 0,
    0, 0,
    0, 0,
    0, 0,
    0, 0,
    0, 0,
    0, 0,
    0, 0,
    0, 0,
    0, 0,
    0, 0,
    0, 0,
    0, 0,
    0, 0,
    0, 0,
    0, 0,
    0, 0,
    0, 0,
    0, 0,

  % k = 18
    0, 0,
    0, 0,
    0, 0,
    0, 0,
    0, 0,
    0, 0,
    0, 0,
    0, 0,
    0, 0,
    0, 0,
    0, 0,
    0, 0,
    0, 0,
    0, 0,
    0, 0,
    0, 0,
    0, 0,
    0, 0,
    0, 0,
    0, 0,
    0, 0,
    0, 0,
    0, 0,
    0, 0,
    0, 0,

  % k = 19
    0, 0,
    0, 0,
    0, 0,
    0, 0,
    0, 0,
    0, 0,
    0, 0,
    0, 0,
    0, 0,
    0, 0,
    0, 0,
    0, 0,
    0, 0,
    0, 0,
    0, 0,
    0, 0,
    0, 0,
    0, 0,
    0, 0,
    0, 0,
    0, 0,
    0, 0,
    0, 0,
    0, 0,
    0, 0,

  % k = 20
    0, 0,
    0, 0,
    0, 0,
    0, 0,
    0, 0,
    0, 0,
    0, 0,
    0, 0,
    0, 0,
    0, 0,
    0, 0,
    0, 0,
    0, 0,
    0, 0,
    0, 0,
    0, 0,
    0, 0,
    0, 0,
    0, 0,
    0, 0,
    0, 0,
    0, 0,
    0, 0,
    0, 0,
    0, 0,

  % k = 21
    0, 0,
    0, 0,
    0, 0,
    0, 0,
    0, 0,
    0, 0,
    0, 0,
    0, 0,
    0, 0,
    0, 0,
    0, 0,
    0, 0,
    0, 0,
    0, 0,
    0, 0,
    0, 0,
    0, 0,
    0, 0,
    0, 0,
    0, 0,
    0, 0,
    0, 0,
    0, 0,
    0, 0,
    0, 0,

  % k = 22
    0, 0,
    0, 0,
    0, 0,
    0, 0,
    0, 0,
    0, 0,
    0, 0,
    0, 0,
    0, 0,
    0, 0,
    0, 0,
    0, 0,
    0, 0,
    0, 0,
    0, 0,
    0, 0,
    0, 0,
    0, 0,
    0, 0,
    0, 0,
    0, 0,
    0, 0,
    0, 0,
    0, 0,
    0, 0,

  % k = 23
    0, 0,
    0, 0,
    0, 0,
    0, 0,
    0, 0,
    0, 0,
    0, 0,
    0, 0,
    0, 0,
    0, 0,
    0, 0,
    0, 0,
    0, 0,
    0, 0,
    0, 0,
    0, 0,
    0, 0,
    0, 0,
    0, 0,
    0, 0,
    0, 0,
    0, 0,
    0, 0,
    0, 0,
    0, 0,

  % k = 24
    0, 0,
    0, 0,
    0, 0,
    0, 0,
    0, 0,
    0, 0,
    0, 0,
    0, 0,
    0, 0,
    0, 0,
    0, 0,
    0, 0,
    0, 0,
    0, 0,
    0, 0,
    0, 0,
    0, 0,
    0, 0,
    0, 0,
    0, 0,
    0, 0,
    0, 0,
    0, 0,
    0, 0,
    0, 0,

  % k = 25
    0, 0,
    0, 0,
    0, 0,
    0, 0,
    0, 0,
    0, 0,
    0, 0,
    0, 0,
    0, 0,
    0, 0,
    0, 0,
    0, 0,
    0, 0,
    0, 0,
    0, 0,
    0, 0,
    0, 0,
    0, 0,
    0, 0,
    0, 0,
    0, 0,
    0, 0,
    0, 0,
    0, 0,
    0, 0
]);
row_d_nfa = array3d(1..25, 1..25, 1..2, [
  % k = 1
    {1}, {2},
    {3}, {},
    {3}, {4},
    {}, {5},
    {6}, {},
    {6}, {7},
    {}, {8},
    {}, {9},
    {}, {10},
    {11}, {},
    {11}, {12},
    {}, {13},
    {14}, {},
    {14}, {15},
    {}, {16},
    {16}, {},
    {}, {},
    {}, {},
    {}, {},
    {}, {},
    {}, {},
    {}, {},
    {}, {},
    {}, {},
    {}, {},

  % k = 2
    {1}, {2},
    {3}, {},
    {3}, {4},
    {}, {5},
    {}, {6},
    {}, {7},
    {}, {8},
    {9}, {},
    {9}, {10},
    {11}, {},
    {11}, {12},
    {13}, {},
    {13}, {14},
    {}, {15},
    {16}, {},
    {16}, {17},
    {18}, {},
    {18}, {19},
    {}, {20},
    {20}, {},
    {}, {},
    {}, {},
    {}, {},
    {}, {},
    {}, {},

  % k = 3
    {1}, {2},
    {3}, {},
    {3}, {4},
    {}, {5},
    {}, {6},
    {7}, {},
    {7}, {8},
    {}, {9},
    {10}, {},
    {10}, {11},
    {}, {12},
    {}, {13},
    {}, {14},
    {15}, {},
    {15}, {16},
    {17}, {},
    {17}, {18},
    {}, {19},
    {}, {20},
    {20}, {},
    {}, {},
    {}, {},
    {}, {},
    {}, {},
    {}, {},

  % k = 4
    {1}, {2},
    {}, {3},
    {}, {4},
    {5}, {},
    {5}, {6},
    {7}, {},
    {7}, {8},
    {}, {9},
    {}, {10},
    {11}, {},
    {11}, {12},
    {}, {13},
    {14}, {},
    {14}, {15},
    {16}, {},
    {16}, {17},
    {18}, {},
    {18}, {19},
    {19}, {},
    {}, {},
    {}, {},
    {}, {},
    {}, {},
    {}, {},
    {}, {},

  % k = 5
    {1}, {2},
    {3}, {},
    {3}, {4},
    {5}, {},
    {5}, {6},
    {}, {7},
    {}, {8},
    {}, {9},
    {}, {10},
    {11}, {},
    {11}, {12},
    {}, {13},
    {14}, {},
    {14}, {15},
    {16}, {},
    {16}, {17},
    {17}, {},
    {}, {},
    {}, {},
    {}, {},
    {}, {},
    {}, {},
    {}, {},
    {}, {},
    {}, {},

  % k = 6
    {1}, {2},
    {3}, {},
    {3}, {4},
    {5}, {},
    {5}, {6},
    {7}, {},
    {7}, {8},
    {9}, {},
    {9}, {10},
    {11}, {},
    {11}, {12},
    {12}, {},
    {}, {},
    {}, {},
    {}, {},
    {}, {},
    {}, {},
    {}, {},
    {}, {},
    {}, {},
    {}, {},
    {}, {},
    {}, {},
    {}, {},
    {}, {},

  % k = 7
    {1}, {2},
    {}, {3},
    {4}, {},
    {4}, {5},
    {}, {6},
    {7}, {},
    {7}, {8},
    {}, {9},
    {}, {10},
    {}, {11},
    {12}, {},
    {12}, {13},
    {}, {14},
    {}, {15},
    {}, {16},
    {17}, {},
    {17}, {18},
    {18}, {},
    {}, {},
    {}, {},
    {}, {},
    {}, {},
    {}, {},
    {}, {},
    {}, {},

  % k = 8
    {1}, {2},
    {3}, {},
    {3}, {4},
    {}, {5},
    {}, {6},
    {7}, {},
    {7}, {8},
    {9}, {},
    {9}, {10},
    {11}, {},
    {11}, {12},
    {13}, {},
    {13}, {14},
    {15}, {},
    {15}, {16},
    {}, {17},
    {}, {18},
    {19}, {},
    {19}, {20},
    {}, {21},
    {21}, {},
    {}, {},
    {}, {},
    {}, {},
    {}, {},

  % k = 9
    {1}, {2},
    {}, {3},
    {}, {4},
    {}, {5},
    {}, {6},
    {}, {7},
    {8}, {},
    {8}, {9},
    {10}, {},
    {10}, {11},
    {}, {12},
    {13}, {},
    {13}, {14},
    {}, {15},
    {15}, {},
    {}, {},
    {}, {},
    {}, {},
    {}, {},
    {}, {},
    {}, {},
    {}, {},
    {}, {},
    {}, {},
    {}, {},

  % k = 10
    {1}, {2},
    {}, {3},
    {}, {4},
    {5}, {},
    {5}, {6},
    {}, {7},
    {}, {8},
    {}, {9},
    {}, {10},
    {11}, {},
    {11}, {12},
    {13}, {},
    {13}, {14},
    {15}, {},
    {15}, {16},
    {17}, {},
    {17}, {18},
    {19}, {},
    {19}, {20},
    {}, {21},
    {21}, {},
    {}, {},
    {}, {},
    {}, {},
    {}, {},

  % k = 11
    {1}, {2},
    {}, {3},
    {}, {4},
    {}, {5},
    {6}, {},
    {6}, {7},
    {}, {8},
    {9}, {},
    {9}, {10},
    {}, {11},
    {12}, {},
    {12}, {13},
    {}, {14},
    {}, {15},
    {}, {16},
    {17}, {},
    {17}, {18},
    {19}, {},
    {19}, {20},
    {}, {21},
    {21}, {},
    {}, {},
    {}, {},
    {}, {},
    {}, {},

  % k = 12
    {1}, {2},
    {}, {3},
    {}, {4},
    {5}, {},
    {5}, {6},
    {7}, {},
    {7}, {8},
    {9}, {},
    {9}, {10},
    {11}, {},
    {11}, {12},
    {}, {13},
    {}, {14},
    {15}, {},
    {15}, {16},
    {17}, {},
    {17}, {18},
    {18}, {},
    {}, {},
    {}, {},
    {}, {},
    {}, {},
    {}, {},
    {}, {},
    {}, {},

  % k = 13
    {1}, {2},
    {}, {3},
    {}, {4},
    {5}, {},
    {5}, {6},
    {7}, {},
    {7}, {8},
    {}, {9},
    {10}, {},
    {10}, {11},
    {12}, {},
    {12}, {13},
    {14}, {},
    {14}, {15},
    {15}, {},
    {}, {},
    {}, {},
    {}, {},
    {}, {},
    {}, {},
    {}, {},
    {}, {},
    {}, {},
    {}, {},
    {}, {},

  % k = 14
    {1}, {2},
    {3}, {},
    {3}, {4},
    {5}, {},
    {5}, {6},
    {7}, {},
    {7}, {8},
    {9}, {},
    {9}, {10},
    {}, {11},
    {12}, {},
    {12}, {13},
    {}, {14},
    {}, {15},
    {16}, {},
    {16}, {17},
    {17}, {},
    {}, {},
    {}, {},
    {}, {},
    {}, {},
    {}, {},
    {}, {},
    {}, {},
    {}, {},

  % k = 15
    {1}, {2},
    {3}, {},
    {3}, {4},
    {5}, {},
    {5}, {6},
    {}, {7},
    {}, {8},
    {9}, {},
    {9}, {10},
    {}, {11},
    {}, {12},
    {}, {13},
    {14}, {},
    {14}, {15},
    {}, {16},
    {}, {17},
    {18}, {},
    {18}, {19},
    {}, {20},
    {20}, {},
    {}, {},
    {}, {},
    {}, {},
    {}, {},
    {}, {},

  % k = 16
    {1}, {2},
    {}, {3},
    {}, {4},
    {5}, {},
    {5}, {6},
    {}, {7},
    {}, {8},
    {}, {9},
    {10}, {},
    {10}, {11},
    {}, {12},
    {}, {13},
    {14}, {},
    {14}, {15},
    {16}, {},
    {16}, {17},
    {}, {18},
    {19}, {},
    {19}, {20},
    {21}, {},
    {21}, {22},
    {}, {23},
    {24}, {},
    {24}, {25},
    {25}, {},

  % k = 17
    {1}, {2},
    {3}, {},
    {3}, {4},
    {}, {5},
    {}, {6},
    {7}, {},
    {7}, {8},
    {}, {9},
    {}, {10},
    {11}, {},
    {11}, {12},
    {13}, {},
    {13}, {14},
    {15}, {},
    {15}, {16},
    {}, {17},
    {}, {18},
    {18}, {},
    {}, {},
    {}, {},
    {}, {},
    {}, {},
    {}, {},
    {}, {},
    {}, {},

  % k = 18
    {1}, {2},
    {}, {3},
    {}, {4},
    {5}, {},
    {5}, {6},
    {}, {7},
    {}, {8},
    {}, {9},
    {}, {10},
    {11}, {},
    {11}, {12},
    {13}, {},
    {13}, {14},
    {}, {15},
    {}, {16},
    {17}, {},
    {17}, {18},
    {}, {19},
    {20}, {},
    {20}, {21},
    {}, {22},
    {}, {23},
    {23}, {},
    {}, {},
    {}, {},

  % k = 19
    {1}, {2},
    {}, {3},
    {4}, {},
    {4}, {5},
    {}, {6},
    {}, {7},
    {8}, {},
    {8}, {9},
    {10}, {},
    {10}, {11},
    {12}, {},
    {12}, {13},
    {}, {14},
    {}, {15},
    {16}, {},
    {16}, {17},
    {18}, {},
    {18}, {19},
    {}, {20},
    {20}, {},
    {}, {},
    {}, {},
    {}, {},
    {}, {},
    {}, {},

  % k = 20
    {1}, {2},
    {3}, {},
    {3}, {4},
    {5}, {},
    {5}, {6},
    {}, {7},
    {}, {8},
    {9}, {},
    {9}, {10},
    {11}, {},
    {11}, {12},
    {}, {13},
    {}, {14},
    {15}, {},
    {15}, {16},
    {}, {17},
    {}, {18},
    {19}, {},
    {19}, {20},
    {20}, {},
    {}, {},
    {}, {},
    {}, {},
    {}, {},
    {}, {},

  % k = 21
    {1}, {2},
    {}, {3},
    {}, {4},
    {}, {5},
    {6}, {},
    {6}, {7},
    {}, {8},
    {}, {9},
    {10}, {},
    {10}, {11},
    {}, {12},
    {12}, {},
    {}, {},
    {}, {},
    {}, {},
    {}, {},
    {}, {},
    {}, {},
    {}, {},
    {}, {},
    {}, {},
    {}, {},
    {}, {},
    {}, {},
    {}, {},

  % k = 22
    {1}, {2},
    {}, {3},
    {}, {4},
    {5}, {},
    {5}, {6},
    {}, {7},
    {8}, {},
    {8}, {9},
    {}, {10},
    {11}, {},
    {11}, {12},
    {}, {13},
    {14}, {},
    {14}, {15},
    {16}, {},
    {16}, {17},
    {}, {18},
    {}, {19},
    {}, {20},
    {}, {21},
    {22}, {},
    {22}, {23},
    {24}, {},
    {24}, {25},
    {25}, {},

  % k = 23
    {1}, {2},
    {}, {3},
    {}, {4},
    {}, {5},
    {}, {6},
    {}, {7},
    {8}, {},
    {8}, {9},
    {}, {10},
    {11}, {},
    {11}, {12},
    {13}, {},
    {13}, {14},
    {15}, {},
    {15}, {16},
    {16}, {},
    {}, {},
    {}, {},
    {}, {},
    {}, {},
    {}, {},
    {}, {},
    {}, {},
    {}, {},
    {}, {},

  % k = 24
    {1}, {2},
    {}, {3},
    {4}, {},
    {4}, {5},
    {6}, {},
    {6}, {7},
    {}, {8},
    {}, {9},
    {10}, {},
    {10}, {11},
    {12}, {},
    {12}, {13},
    {14}, {},
    {14}, {15},
    {16}, {},
    {16}, {17},
    {18}, {},
    {18}, {19},
    {19}, {},
    {}, {},
    {}, {},
    {}, {},
    {}, {},
    {}, {},
    {}, {},

  % k = 25
    {1}, {2},
    {}, {3},
    {}, {4},
    {5}, {},
    {5}, {6},
    {7}, {},
    {7}, {8},
    {}, {9},
    {10}, {},
    {10}, {11},
    {12}, {},
    {12}, {13},
    {14}, {},
    {14}, {15},
    {}, {16},
    {17}, {},
    {17}, {18},
    {18}, {},
    {}, {},
    {}, {},
    {}, {},
    {}, {},
    {}, {},
    {}, {},
    {}, {}
]);
col_d_dfa = array3d(1..25, 1..25, 1..2, [
  % k = 1
    0, 0,
    0, 0,
    0, 0,
    0, 0,
    0, 0,
    0, 0,
    0, 0,
    0, 0,
    0, 0,
    0, 0,
    0, 0,
    0, 0,
    0, 0,
    0, 0,
    0, 0,
    0, 0,
    0, 0,
    0, 0,
    0, 0,
    0, 0,
    0, 0,
    0, 0,
    0, 0,
    0, 0,
    0, 0,

  % k = 2
    0, 0,
    0, 0,
    0, 0,
    0, 0,
    0, 0,
    0, 0,
    0, 0,
    0, 0,
    0, 0,
    0, 0,
    0, 0,
    0, 0,
    0, 0,
    0, 0,
    0, 0,
    0, 0,
    0, 0,
    0, 0,
    0, 0,
    0, 0,
    0, 0,
    0, 0,
    0, 0,
    0, 0,
    0, 0,

  % k = 3
    0, 0,
    0, 0,
    0, 0,
    0, 0,
    0, 0,
    0, 0,
    0, 0,
    0, 0,
    0, 0,
    0, 0,
    0, 0,
    0, 0,
    0, 0,
    0, 0,
    0, 0,
    0, 0,
    0, 0,
    0, 0,
    0, 0,
    0, 0,
    0, 0,
    0, 0,
    0, 0,
    0, 0,
    0, 0,

  % k = 4
    0, 0,
    0, 0,
    0, 0,
    0, 0,
    0, 0,
    0, 0,
    0, 0,
    0, 0,
    0, 0,
    0, 0,
    0, 0,
    0, 0,
    0, 0,
    0, 0,
    0, 0,
    0, 0,
    0, 0,
    0, 0,
    0, 0,
    0, 0,
    0, 0,
    0, 0,
    0, 0,
    0, 0,
    0, 0,

  % k = 5
    0, 0,
    0, 0,
    0, 0,
    0, 0,
    0, 0,
    0, 0,
    0, 0,
    0, 0,
    0, 0,
    0, 0,
    0, 0,
    0, 0,
    0, 0,
    0, 0,
    0, 0,
    0, 0,
    0, 0,
    0, 0,
    0, 0,
    0, 0,
    0, 0,
    0, 0,
    0, 0,
    0, 0,
    0, 0,

  % k = 6
    0, 0,
    0, 0,
    0, 0,
    0, 0,
    0, 0,
    0, 0,
    0, 0,
    0, 0,
    0, 0,
    0, 0,
    0, 0,
    0, 0,
    0, 0,
    0, 0,
    0, 0,
    0, 0,
    0, 0,
    0, 0,
    0, 0,
    0, 0,
    0, 0,
    0, 0,
    0, 0,
    0, 0,
    0, 0,

  % k = 7
    0, 0,
    0, 0,
    0, 0,
    0, 0,
    0, 0,
    0, 0,
    0, 0,
    0, 0,
    0, 0,
    0, 0,
    0, 0,
    0, 0,
    0, 0,
    0, 0,
    0, 0,
    0, 0,
    0, 0,
    0, 0,
    0, 0,
    0, 0,
    0, 0,
    0, 0,
    0, 0,
    0, 0,
    0, 0,

  % k = 8
    0, 0,
    0, 0,
    0, 0,
    0, 0,
    0, 0,
    0, 0,
    0, 0,
    0, 0,
    0, 0,
    0, 0,
    0, 0,
    0, 0,
    0, 0,
    0, 0,
    0, 0,
    0, 0,
    0, 0,
    0, 0,
    0, 0,
    0, 0,
    0, 0,
    0, 0,
    0, 0,
    0, 0,
    0, 0,

  % k = 9
    0, 0,
    0, 0,
    0, 0,
    0, 0,
    0, 0,
    0, 0,
    0, 0,
    0, 0,
    0, 0,
    0, 0,
    0, 0,
    0, 0,
    0, 0,
    0, 0,
    0, 0,
    0, 0,
    0, 0,
    0, 0,
    0, 0,
    0, 0,
    0, 0,
    0, 0,
    0, 0,
    0, 0,
    0, 0,

  % k = 10
    0, 0,
    0, 0,
    0, 0,
    0, 0,
    0, 0,
    0, 0,
    0, 0,
    0, 0,
    0, 0,
    0, 0,
    0, 0,
    0, 0,
    0, 0,
    0, 0,
    0, 0,
    0, 0,
    0, 0,
    0, 0,
    0, 0,
    0, 0,
    0, 0,
    0, 0,
    0, 0,
    0, 0,
    0, 0,

  % k = 11
    0, 0,
    0, 0,
    0, 0,
    0, 0,
    0, 0,
    0, 0,
    0, 0,
    0, 0,
    0, 0,
    0, 0,
    0, 0,
    0, 0,
    0, 0,
    0, 0,
    0, 0,
    0, 0,
    0, 0,
    0, 0,
    0, 0,
    0, 0,
    0, 0,
    0, 0,
    0, 0,
    0, 0,
    0, 0,

  % k = 12
    0, 0,
    0, 0,
    0, 0,
    0, 0,
    0, 0,
    0, 0,
    0, 0,
    0, 0,
    0, 0,
    0, 0,
    0, 0,
    0, 0,
    0, 0,
    0, 0,
    0, 0,
    0, 0,
    0, 0,
    0, 0,
    0, 0,
    0, 0,
    0, 0,
    0, 0,
    0, 0,
    0, 0,
    0, 0,

  % k = 13
    0, 0,
    0, 0,
    0, 0,
    0, 0,
    0, 0,
    0, 0,
    0, 0,
    0, 0,
    0, 0,
    0, 0,
    0, 0,
    0, 0,
    0, 0,
    0, 0,
    0, 0,
    0, 0,
    0, 0,
    0, 0,
    0, 0,
    0, 0,
    0, 0,
    0, 0,
    0, 0,
    0, 0,
    0, 0,

  % k = 14
    0, 0,
    0, 0,
    0, 0,
    0, 0,
    0, 0,
    0, 0,
    0, 0,
    0, 0,
    0, 0,
    0, 0,
    0, 0,
    0, 0,
    0, 0,
    0, 0,
    0, 0,
    0, 0,
    0, 0,
    0, 0,
    0, 0,
    0, 0,
    0, 0,
    0, 0,
    0, 0,
    0, 0,
    0, 0,

  % k = 15
    0, 0,
    0, 0,
    0, 0,
    0, 0,
    0, 0,
    0, 0,
    0, 0,
    0, 0,
    0, 0,
    0, 0,
    0, 0,
    0, 0,
    0, 0,
    0, 0,
    0, 0,
    0, 0,
    0, 0,
    0, 0,
    0, 0,
    0, 0,
    0, 0,
    0, 0,
    0, 0,
    0, 0,
    0, 0,

  % k = 16
    0, 0,
    0, 0,
    0, 0,
    0, 0,
    0, 0,
    0, 0,
    0, 0,
    0, 0,
    0, 0,
    0, 0,
    0, 0,
    0, 0,
    0, 0,
    0, 0,
    0, 0,
    0, 0,
    0, 0,
    0, 0,
    0, 0,
    0, 0,
    0, 0,
    0, 0,
    0, 0,
    0, 0,
    0, 0,

  % k = 17
    0, 0,
    0, 0,
    0, 0,
    0, 0,
    0, 0,
    0, 0,
    0, 0,
    0, 0,
    0, 0,
    0, 0,
    0, 0,
    0, 0,
    0, 0,
    0, 0,
    0, 0,
    0, 0,
    0, 0,
    0, 0,
    0, 0,
    0, 0,
    0, 0,
    0, 0,
    0, 0,
    0, 0,
    0, 0,

  % k = 18
    0, 0,
    0, 0,
    0, 0,
    0, 0,
    0, 0,
    0, 0,
    0, 0,
    0, 0,
    0, 0,
    0, 0,
    0, 0,
    0, 0,
    0, 0,
    0, 0,
    0, 0,
    0, 0,
    0, 0,
    0, 0,
    0, 0,
    0, 0,
    0, 0,
    0, 0,
    0, 0,
    0, 0,
    0, 0,

  % k = 19
    0, 0,
    0, 0,
    0, 0,
    0, 0,
    0, 0,
    0, 0,
    0, 0,
    0, 0,
    0, 0,
    0, 0,
    0, 0,
    0, 0,
    0, 0,
    0, 0,
    0, 0,
    0, 0,
    0, 0,
    0, 0,
    0, 0,
    0, 0,
    0, 0,
    0, 0,
    0, 0,
    0, 0,
    0, 0,

  % k = 20
    0, 0,
    0, 0,
    0, 0,
    0, 0,
    0, 0,
    0, 0,
    0, 0,
    0, 0,
    0, 0,
    0, 0,
    0, 0,
    0, 0,
    0, 0,
    0, 0,
    0, 0,
    0, 0,
    0, 0,
    0, 0,
    0, 0,
    0, 0,
    0, 0,
    0, 0,
    0, 0,
    0, 0,
    0, 0,

  % k = 21
    0, 0,
    0, 0,
    0, 0,
    0, 0,
    0, 0,
    0, 0,
    0, 0,
    0, 0,
    0, 0,
    0, 0,
    0, 0,
    0, 0,
    0, 0,
    0, 0,
    0, 0,
    0, 0,
    0, 0,
    0, 0,
    0, 0,
    0, 0,
    0, 0,
    0, 0,
    0, 0,
    0, 0,
    0, 0,

  % k = 22
    0, 0,
    0, 0,
    0, 0,
    0, 0,
    0, 0,
    0, 0,
    0, 0,
    0, 0,
    0, 0,
    0, 0,
    0, 0,
    0, 0,
    0, 0,
    0, 0,
    0, 0,
    0, 0,
    0, 0,
    0, 0,
    0, 0,
    0, 0,
    0, 0,
    0, 0,
    0, 0,
    0, 0,
    0, 0,

  % k = 23
    0, 0,
    0, 0,
    0, 0,
    0, 0,
    0, 0,
    0, 0,
    0, 0,
    0, 0,
    0, 0,
    0, 0,
    0, 0,
    0, 0,
    0, 0,
    0, 0,
    0, 0,
    0, 0,
    0, 0,
    0, 0,
    0, 0,
    0, 0,
    0, 0,
    0, 0,
    0, 0,
    0, 0,
    0, 0,

  % k = 24
    0, 0,
    0, 0,
    0, 0,
    0, 0,
    0, 0,
    0, 0,
    0, 0,
    0, 0,
    0, 0,
    0, 0,
    0, 0,
    0, 0,
    0, 0,
    0, 0,
    0, 0,
    0, 0,
    0, 0,
    0, 0,
    0, 0,
    0, 0,
    0, 0,
    0, 0,
    0, 0,
    0, 0,
    0, 0,

  % k = 25
    0, 0,
    0, 0,
    0, 0,
    0, 0,
    0, 0,
    0, 0,
    0, 0,
    0, 0,
    0, 0,
    0, 0,
    0, 0,
    0, 0,
    0, 0,
    0, 0,
    0, 0,
    0, 0,
    0, 0,
    0, 0,
    0, 0,
    0, 0,
    0, 0,
    0, 0,
    0, 0,
    0, 0,
    0, 0
]);
col_d_nfa = array3d(1..25, 1..25, 1..2, [
  % k = 1
    {1}, {2},
    {3}, {},
    {3}, {4},
    {5}, {},
    {5}, {6},
    {7}, {},
    {7}, {8},
    {9}, {},
    {9}, {10},
    {}, {11},
    {}, {12},
    {}, {13},
    {}, {14},
    {}, {15},
    {16}, {},
    {16}, {17},
    {}, {18},
    {}, {19},
    {20}, {},
    {20}, {21},
    {}, {22},
    {22}, {},
    {}, {},
    {}, {},
    {}, {},

  % k = 2
    {1}, {2},
    {}, {3},
    {}, {4},
    {5}, {},
    {5}, {6},
    {}, {7},
    {}, {8},
    {}, {9},
    {10}, {},
    {10}, {11},
    {12}, {},
    {12}, {13},
    {}, {14},
    {15}, {},
    {15}, {16},
    {}, {17},
    {}, {18},
    {18}, {},
    {}, {},
    {}, {},
    {}, {},
    {}, {},
    {}, {},
    {}, {},
    {}, {},

  % k = 3
    {1}, {2},
    {3}, {},
    {3}, {4},
    {5}, {},
    {5}, {6},
    {7}, {},
    {7}, {8},
    {}, {9},
    {}, {10},
    {}, {11},
    {}, {12},
    {}, {13},
    {}, {14},
    {}, {15},
    {}, {16},
    {17}, {},
    {17}, {18},
    {19}, {},
    {19}, {20},
    {}, {21},
    {}, {22},
    {}, {23},
    {23}, {},
    {}, {},
    {}, {},

  % k = 4
    {1}, {2},
    {3}, {},
    {3}, {4},
    {}, {5},
    {}, {6},
    {}, {7},
    {}, {8},
    {}, {9},
    {10}, {},
    {10}, {11},
    {12}, {},
    {12}, {13},
    {14}, {},
    {14}, {15},
    {15}, {},
    {}, {},
    {}, {},
    {}, {},
    {}, {},
    {}, {},
    {}, {},
    {}, {},
    {}, {},
    {}, {},
    {}, {},

  % k = 5
    {1}, {2},
    {}, {3},
    {}, {4},
    {}, {5},
    {}, {6},
    {7}, {},
    {7}, {8},
    {}, {9},
    {10}, {},
    {10}, {11},
    {12}, {},
    {12}, {13},
    {}, {14},
    {}, {15},
    {}, {16},
    {}, {17},
    {18}, {},
    {18}, {19},
    {}, {20},
    {}, {21},
    {22}, {},
    {22}, {23},
    {23}, {},
    {}, {},
    {}, {},

  % k = 6
    {1}, {2},
    {}, {3},
    {4}, {},
    {4}, {5},
    {}, {6},
    {}, {7},
    {}, {8},
    {}, {9},
    {10}, {},
    {10}, {11},
    {12}, {},
    {12}, {13},
    {}, {14},
    {}, {15},
    {}, {16},
    {}, {17},
    {}, {18},
    {}, {19},
    {}, {20},
    {}, {21},
    {21}, {},
    {}, {},
    {}, {},
    {}, {},
    {}, {},

  % k = 7
    {1}, {2},
    {}, {3},
    {}, {4},
    {}, {5},
    {6}, {},
    {6}, {7},
    {8}, {},
    {8}, {9},
    {}, {10},
    {}, {11},
    {12}, {},
    {12}, {13},
    {}, {14},
    {}, {15},
    {}, {16},
    {17}, {},
    {17}, {18},
    {}, {19},
    {20}, {},
    {20}, {21},
    {21}, {},
    {}, {},
    {}, {},
    {}, {},
    {}, {},

  % k = 8
    {1}, {2},
    {}, {3},
    {}, {4},
    {5}, {},
    {5}, {6},
    {}, {7},
    {8}, {},
    {8}, {9},
    {10}, {},
    {10}, {11},
    {12}, {},
    {12}, {13},
    {14}, {},
    {14}, {15},
    {}, {16},
    {}, {17},
    {18}, {},
    {18}, {19},
    {19}, {},
    {}, {},
    {}, {},
    {}, {},
    {}, {},
    {}, {},
    {}, {},

  % k = 9
    {1}, {2},
    {}, {3},
    {}, {4},
    {}, {5},
    {}, {6},
    {7}, {},
    {7}, {8},
    {}, {9},
    {}, {10},
    {}, {11},
    {}, {12},
    {13}, {},
    {13}, {14},
    {}, {15},
    {16}, {},
    {16}, {17},
    {}, {18},
    {}, {19},
    {19}, {},
    {}, {},
    {}, {},
    {}, {},
    {}, {},
    {}, {},
    {}, {},

  % k = 10
    {1}, {2},
    {3}, {},
    {3}, {4},
    {5}, {},
    {5}, {6},
    {7}, {},
    {7}, {8},
    {9}, {},
    {9}, {10},
    {}, {11},
    {12}, {},
    {12}, {13},
    {}, {14},
    {}, {15},
    {}, {16},
    {17}, {},
    {17}, {18},
    {19}, {},
    {19}, {20},
    {}, {21},
    {21}, {},
    {}, {},
    {}, {},
    {}, {},
    {}, {},

  % k = 11
    {1}, {2},
    {}, {3},
    {}, {4},
    {}, {5},
    {6}, {},
    {6}, {7},
    {8}, {},
    {8}, {9},
    {10}, {},
    {10}, {11},
    {}, {12},
    {13}, {},
    {13}, {14},
    {15}, {},
    {15}, {16},
    {17}, {},
    {17}, {18},
    {}, {19},
    {19}, {},
    {}, {},
    {}, {},
    {}, {},
    {}, {},
    {}, {},
    {}, {},

  % k = 12
    {1}, {2},
    {3}, {},
    {3}, {4},
    {}, {5},
    {6}, {},
    {6}, {7},
    {}, {8},
    {9}, {},
    {9}, {10},
    {}, {11},
    {12}, {},
    {12}, {13},
    {}, {14},
    {}, {15},
    {}, {16},
    {17}, {},
    {17}, {18},
    {}, {19},
    {20}, {},
    {20}, {21},
    {21}, {},
    {}, {},
    {}, {},
    {}, {},
    {}, {},

  % k = 13
    {1}, {2},
    {}, {3},
    {}, {4},
    {5}, {},
    {5}, {6},
    {7}, {},
    {7}, {8},
    {}, {9},
    {10}, {},
    {10}, {11},
    {12}, {},
    {12}, {13},
    {}, {14},
    {15}, {},
    {15}, {16},
    {16}, {},
    {}, {},
    {}, {},
    {}, {},
    {}, {},
    {}, {},
    {}, {},
    {}, {},
    {}, {},
    {}, {},

  % k = 14
    {1}, {2},
    {3}, {},
    {3}, {4},
    {5}, {},
    {5}, {6},
    {7}, {},
    {7}, {8},
    {9}, {},
    {9}, {10},
    {11}, {},
    {11}, {12},
    {13}, {},
    {13}, {14},
    {}, {15},
    {}, {16},
    {}, {17},
    {}, {18},
    {}, {19},
    {}, {20},
    {20}, {},
    {}, {},
    {}, {},
    {}, {},
    {}, {},
    {}, {},

  % k = 15
    {1}, {2},
    {}, {3},
    {}, {4},
    {}, {5},
    {}, {6},
    {7}, {},
    {7}, {8},
    {}, {9},
    {10}, {},
    {10}, {11},
    {}, {12},
    {}, {13},
    {14}, {},
    {14}, {15},
    {16}, {},
    {16}, {17},
    {18}, {},
    {18}, {19},
    {}, {20},
    {20}, {},
    {}, {},
    {}, {},
    {}, {},
    {}, {},
    {}, {},

  % k = 16
    {1}, {2},
    {3}, {},
    {3}, {4},
    {5}, {},
    {5}, {6},
    {}, {7},
    {8}, {},
    {8}, {9},
    {}, {10},
    {}, {11},
    {}, {12},
    {13}, {},
    {13}, {14},
    {}, {15},
    {15}, {},
    {}, {},
    {}, {},
    {}, {},
    {}, {},
    {}, {},
    {}, {},
    {}, {},
    {}, {},
    {}, {},
    {}, {},

  % k = 17
    {1}, {2},
    {3}, {},
    {3}, {4},
    {}, {5},
    {}, {6},
    {7}, {},
    {7}, {8},
    {9}, {},
    {9}, {10},
    {11}, {},
    {11}, {12},
    {}, {13},
    {}, {14},
    {15}, {},
    {15}, {16},
    {17}, {},
    {17}, {18},
    {19}, {},
    {19}, {20},
    {20}, {},
    {}, {},
    {}, {},
    {}, {},
    {}, {},
    {}, {},

  % k = 18
    {1}, {2},
    {}, {3},
    {4}, {},
    {4}, {5},
    {6}, {},
    {6}, {7},
    {}, {8},
    {9}, {},
    {9}, {10},
    {11}, {},
    {11}, {12},
    {13}, {},
    {13}, {14},
    {14}, {},
    {}, {},
    {}, {},
    {}, {},
    {}, {},
    {}, {},
    {}, {},
    {}, {},
    {}, {},
    {}, {},
    {}, {},
    {}, {},

  % k = 19
    {1}, {2},
    {3}, {},
    {3}, {4},
    {}, {5},
    {}, {6},
    {}, {7},
    {8}, {},
    {8}, {9},
    {}, {10},
    {10}, {},
    {}, {},
    {}, {},
    {}, {},
    {}, {},
    {}, {},
    {}, {},
    {}, {},
    {}, {},
    {}, {},
    {}, {},
    {}, {},
    {}, {},
    {}, {},
    {}, {},
    {}, {},

  % k = 20
    {1}, {2},
    {3}, {},
    {3}, {4},
    {5}, {},
    {5}, {6},
    {}, {7},
    {}, {8},
    {9}, {},
    {9}, {10},
    {11}, {},
    {11}, {12},
    {12}, {},
    {}, {},
    {}, {},
    {}, {},
    {}, {},
    {}, {},
    {}, {},
    {}, {},
    {}, {},
    {}, {},
    {}, {},
    {}, {},
    {}, {},
    {}, {},

  % k = 21
    {1}, {2},
    {3}, {},
    {3}, {4},
    {5}, {},
    {5}, {6},
    {}, {7},
    {8}, {},
    {8}, {9},
    {10}, {},
    {10}, {11},
    {}, {12},
    {13}, {},
    {13}, {14},
    {}, {15},
    {16}, {},
    {16}, {17},
    {}, {18},
    {18}, {},
    {}, {},
    {}, {},
    {}, {},
    {}, {},
    {}, {},
    {}, {},
    {}, {},

  % k = 22
    {1}, {2},
    {}, {3},
    {4}, {},
    {4}, {5},
    {6}, {},
    {6}, {7},
    {}, {8},
    {9}, {},
    {9}, {10},
    {}, {11},
    {}, {12},
    {}, {13},
    {}, {14},
    {}, {15},
    {}, {16},
    {17}, {},
    {17}, {18},
    {18}, {},
    {}, {},
    {}, {},
    {}, {},
    {}, {},
    {}, {},
    {}, {},
    {}, {},

  % k = 23
    {1}, {2},
    {3}, {},
    {3}, {4},
    {5}, {},
    {5}, {6},
    {7}, {},
    {7}, {8},
    {}, {9},
    {10}, {},
    {10}, {11},
    {}, {12},
    {13}, {},
    {13}, {14},
    {15}, {},
    {15}, {16},
    {16}, {},
    {}, {},
    {}, {},
    {}, {},
    {}, {},
    {}, {},
    {}, {},
    {}, {},
    {}, {},
    {}, {},

  % k = 24
    {1}, {2},
    {}, {3},
    {4}, {},
    {4}, {5},
    {}, {6},
    {7}, {},
    {7}, {8},
    {}, {9},
    {}, {10},
    {}, {11},
    {}, {12},
    {13}, {},
    {13}, {14},
    {}, {15},
    {}, {16},
    {}, {17},
    {17}, {},
    {}, {},
    {}, {},
    {}, {},
    {}, {},
    {}, {},
    {}, {},
    {}, {},
    {}, {},

  % k = 25
    {1}, {2},
    {3}, {},
    {3}, {4},
    {}, {5},
    {6}, {},
    {6}, {7},
    {}, {8},
    {9}, {},
    {9}, {10},
    {}, {11},
    {12}, {},
    {12}, {13},
    {}, {14},
    {}, {15},
    {}, {16},
    {16}, {},
    {}, {},
    {}, {},
    {}, {},
    {}, {},
    {}, {},
    {}, {},
    {}, {},
    {}, {},
    {}, {}
]);
